0 1
1 122
2 56
2 162
3 87
3 95
4 160
4 193
5 70
5 84
6 45
6 100
7 44
8 16
8 144
9 145
9 170
10 49
11 82
12 26
12 31
12 86
12 180
12 183
13 14
13 180
15 100
15 129
16 164
17 24
18 88
18 195
19 100
20 33
21 33
21 41
22 203
22 206
23 80
23 195
24 66
25 84
25 179
26 30
26 68
26 148
26 201
27 167
27 168
28 48
28 172
28 205
29 30
29 113
32 195
34 41
34 100
35 202
36 188
37 127
38 98
38 168
38 199
39 114
39 161
40 71
40 180
42 43
42 93
43 109
44 76
45 70
46 53
46 162
47 74
47 131
49 81
50 200
51 74
51 200
52 173
53 83
53 109
53 141
54 143
55 71
55 128
56 207
57 74
57 107
58 79
59 162
60 128
61 101
62 139
62 193
63 64
63 65
63 123
64 147
65 156
65 198
66 89
67 137
67 145
68 143
68 191
69 140
69 192
71 75
71 202
72 74
72 186
73 200
74 108
74 180
74 197
74 204
75 130
76 112
77 98
77 163
78 163
78 210
79 80
81 84
82 83
82 112
85 146
86 87
88 107
89 184
90 129
90 195
91 113
92 98
92 183
93 101
94 116
94 178
94 198
96 97
96 165
97 98
99 165
102 167
103 115
103 173
104 171
105 180
105 182
106 132
106 206
110 146
110 166
111 160
111 191
114 187
115 154
116 141
116 172
117 142
117 160
118 119
118 205
119 176
120 145
120 205
121 165
122 179
124 159
125 129
125 203
126 151
126 196
127 169
131 184
133 153
134 135
135 149
136 152
136 174
137 174
138 139
138 144
140 141
143 153
143 190
146 199
148 151
149 187
150 175
154 191
155 156
157 158
157 177
158 178
159 177
161 196
169 182
171 190
175 194
175 211
176 191
181 182
185 197
186 209
188 208
189 202
196 211
208 209
