0 1
0 2
0 3
0 4
0 5
0 6
0 7
0 8
0 9
0 10
0 11
0 12
0 13
0 14
0 15
0 16
0 17
0 18
0 19
0 20
0 21
0 22
0 23
0 24
0 25
0 26
0 27
0 28
0 29
0 30
0 31
0 32
0 33
0 34
0 35
0 36
0 37
0 38
0 39
0 40
0 41
0 42
0 43
0 44
0 45
0 46
0 47
0 48
0 49
0 50
0 51
0 52
0 53
0 54
0 55
0 56
0 57
0 58
0 59
0 60
0 61
0 62
0 63
0 64
0 65
0 66
0 67
0 68
0 69
0 70
0 71
0 72
0 73
0 74
0 75
0 76
0 77
0 78
0 79
0 80
0 81
0 82
0 83
0 84
0 85
0 86
0 87
0 88
0 89
0 90
0 91
0 92
0 93
0 94
0 95
0 96
0 97
0 98
0 99
0 100
0 101
0 102
0 103
0 104
0 105
0 106
0 107
0 108
0 109
0 110
0 111
0 112
0 113
0 114
0 115
0 116
0 117
0 118
0 119
0 120
0 121
0 122
0 123
0 124
0 125
0 126
0 127
0 128
0 129
0 130
0 131
0 132
0 133
0 134
0 135
0 136
0 137
0 138
0 139
0 140
0 141
0 142
0 143
0 144
0 145
0 146
0 147
0 148
0 149
0 150
0 151
0 152
0 153
0 154
0 155
0 156
0 157
0 158
0 159
0 160
0 161
0 162
0 163
0 164
0 165
0 166
0 167
0 168
0 169
0 170
0 171
0 172
0 173
0 174
0 175
0 176
0 177
0 178
0 179
0 180
0 181
0 182
0 183
0 184
0 185
0 186
0 187
0 188
0 189
0 190
0 191
0 192
0 193
0 194
0 195
0 196
0 197
0 198
0 199
0 200
0 201
0 202
0 203
0 204
0 205
0 206
0 207
0 208
0 209
0 210
0 211
1 122
2 46
2 56
2 59
2 162
2 207
3 86
3 87
3 95
5 6
5 45
5 70
6 45
6 70
7 44
7 76
7 112
8 144
9 170
11 82
11 83
12 77
12 78
12 92
12 96
12 97
12 98
12 99
12 163
12 165
12 183
12 210
13 14
17 18
17 24
17 35
17 36
17 40
17 47
17 50
17 51
17 57
17 66
17 71
17 72
17 73
17 74
17 75
17 88
17 89
17 105
17 107
17 108
17 130
17 131
17 180
17 181
17 182
17 184
17 185
17 186
17 188
17 189
17 197
17 200
17 202
17 204
17 208
17 209
18 24
18 35
18 36
18 40
18 47
18 50
18 51
18 57
18 66
18 71
18 72
18 73
18 74
18 75
18 88
18 89
18 105
18 107
18 108
18 130
18 131
18 180
18 181
18 182
18 184
18 185
18 186
18 188
18 189
18 197
18 200
18 202
18 204
18 208
18 209
20 33
21 41
24 35
24 36
24 40
24 47
24 50
24 51
24 57
24 66
24 71
24 72
24 73
24 74
24 75
24 88
24 89
24 105
24 107
24 108
24 130
24 131
24 180
24 181
24 182
24 184
24 185
24 186
24 188
24 189
24 197
24 200
24 202
24 204
24 208
24 209
25 179
27 38
27 85
27 102
27 146
27 167
27 168
27 199
28 48
28 52
28 67
28 103
28 115
28 116
28 118
28 119
28 120
28 136
28 137
28 145
28 152
28 154
28 172
28 173
28 174
28 176
28 191
28 205
29 91
29 113
34 100
35 36
35 40
35 47
35 50
35 51
35 57
35 66
35 71
35 72
35 73
35 74
35 75
35 88
35 89
35 105
35 107
35 108
35 130
35 131
35 180
35 181
35 182
35 184
35 185
35 186
35 188
35 189
35 197
35 200
35 202
35 204
35 208
35 209
36 40
36 47
36 50
36 51
36 57
36 66
36 71
36 72
36 73
36 74
36 75
36 88
36 89
36 105
36 107
36 108
36 130
36 131
36 180
36 181
36 182
36 184
36 185
36 186
36 188
36 189
36 197
36 200
36 202
36 204
36 208
36 209
37 127
37 169
38 85
38 102
38 146
38 167
38 168
38 199
39 114
39 134
39 135
39 149
39 161
39 187
39 196
40 47
40 50
40 51
40 57
40 66
40 71
40 72
40 73
40 74
40 75
40 88
40 89
40 105
40 107
40 108
40 130
40 131
40 180
40 181
40 182
40 184
40 185
40 186
40 188
40 189
40 197
40 200
40 202
40 204
40 208
40 209
42 43
42 53
42 61
42 93
42 101
42 109
43 53
43 61
43 93
43 101
43 109
44 76
44 112
45 70
46 56
46 59
46 162
46 207
47 50
47 51
47 57
47 66
47 71
47 72
47 73
47 74
47 75
47 88
47 89
47 105
47 107
47 108
47 130
47 131
47 180
47 181
47 182
47 184
47 185
47 186
47 188
47 189
47 197
47 200
47 202
47 204
47 208
47 209
48 52
48 67
48 103
48 115
48 116
48 118
48 119
48 120
48 136
48 137
48 145
48 152
48 154
48 172
48 173
48 174
48 176
48 191
48 205
50 51
50 57
50 66
50 71
50 72
50 73
50 74
50 75
50 88
50 89
50 105
50 107
50 108
50 130
50 131
50 180
50 181
50 182
50 184
50 185
50 186
50 188
50 189
50 197
50 200
50 202
50 204
50 208
50 209
51 57
51 66
51 71
51 72
51 73
51 74
51 75
51 88
51 89
51 105
51 107
51 108
51 130
51 131
51 180
51 181
51 182
51 184
51 185
51 186
51 188
51 189
51 197
51 200
51 202
51 204
51 208
51 209
52 67
52 103
52 115
52 116
52 118
52 119
52 120
52 136
52 137
52 145
52 152
52 154
52 172
52 173
52 174
52 176
52 191
52 205
53 61
53 93
53 101
53 109
55 60
55 128
56 59
56 162
56 207
57 66
57 71
57 72
57 73
57 74
57 75
57 88
57 89
57 105
57 107
57 108
57 130
57 131
57 180
57 181
57 182
57 184
57 185
57 186
57 188
57 189
57 197
57 200
57 202
57 204
57 208
57 209
59 162
59 207
60 128
61 93
61 101
61 109
62 138
62 139
62 193
63 64
63 65
63 123
63 198
64 65
64 123
64 198
65 123
65 198
66 71
66 72
66 73
66 74
66 75
66 88
66 89
66 105
66 107
66 108
66 130
66 131
66 180
66 181
66 182
66 184
66 185
66 186
66 188
66 189
66 197
66 200
66 202
66 204
66 208
66 209
67 103
67 115
67 116
67 118
67 119
67 120
67 136
67 137
67 145
67 152
67 154
67 172
67 173
67 174
67 176
67 191
67 205
68 104
68 143
68 171
68 190
69 140
69 141
69 192
71 72
71 73
71 74
71 75
71 88
71 89
71 105
71 107
71 108
71 130
71 131
71 180
71 181
71 182
71 184
71 185
71 186
71 188
71 189
71 197
71 200
71 202
71 204
71 208
71 209
72 73
72 74
72 75
72 88
72 89
72 105
72 107
72 108
72 130
72 131
72 180
72 181
72 182
72 184
72 185
72 186
72 188
72 189
72 197
72 200
72 202
72 204
72 208
72 209
73 74
73 75
73 88
73 89
73 105
73 107
73 108
73 130
73 131
73 180
73 181
73 182
73 184
73 185
73 186
73 188
73 189
73 197
73 200
73 202
73 204
73 208
73 209
74 75
74 88
74 89
74 105
74 107
74 108
74 130
74 131
74 180
74 181
74 182
74 184
74 185
74 186
74 188
74 189
74 197
74 200
74 202
74 204
74 208
74 209
75 88
75 89
75 105
75 107
75 108
75 130
75 131
75 180
75 181
75 182
75 184
75 185
75 186
75 188
75 189
75 197
75 200
75 202
75 204
75 208
75 209
76 112
77 78
77 92
77 96
77 97
77 98
77 99
77 163
77 165
77 183
77 210
78 92
78 96
78 97
78 98
78 99
78 163
78 165
78 183
78 210
79 80
82 83
85 102
85 146
85 167
85 168
85 199
86 87
86 95
87 95
88 89
88 105
88 107
88 108
88 130
88 131
88 180
88 181
88 182
88 184
88 185
88 186
88 188
88 189
88 197
88 200
88 202
88 204
88 208
88 209
89 105
89 107
89 108
89 130
89 131
89 180
89 181
89 182
89 184
89 185
89 186
89 188
89 189
89 197
89 200
89 202
89 204
89 208
89 209
90 129
91 113
92 96
92 97
92 98
92 99
92 163
92 165
92 183
92 210
93 101
93 109
96 97
96 98
96 99
96 163
96 165
96 183
96 210
97 98
97 99
97 163
97 165
97 183
97 210
98 99
98 163
98 165
98 183
98 210
99 163
99 165
99 183
99 210
101 109
102 146
102 167
102 168
102 199
103 115
103 116
103 118
103 119
103 120
103 136
103 137
103 145
103 152
103 154
103 172
103 173
103 174
103 176
103 191
103 205
104 143
104 171
104 190
105 107
105 108
105 130
105 131
105 180
105 181
105 182
105 184
105 185
105 186
105 188
105 189
105 197
105 200
105 202
105 204
105 208
105 209
106 132
106 206
107 108
107 130
107 131
107 180
107 181
107 182
107 184
107 185
107 186
107 188
107 189
107 197
107 200
107 202
107 204
107 208
107 209
108 130
108 131
108 180
108 181
108 182
108 184
108 185
108 186
108 188
108 189
108 197
108 200
108 202
108 204
108 208
108 209
110 166
114 134
114 135
114 149
114 161
114 187
114 196
115 116
115 118
115 119
115 120
115 136
115 137
115 145
115 152
115 154
115 172
115 173
115 174
115 176
115 191
115 205
116 118
116 119
116 120
116 136
116 137
116 145
116 152
116 154
116 172
116 173
116 174
116 176
116 191
116 205
117 142
117 160
118 119
118 120
118 136
118 137
118 145
118 152
118 154
118 172
118 173
118 174
118 176
118 191
118 205
119 120
119 136
119 137
119 145
119 152
119 154
119 172
119 173
119 174
119 176
119 191
119 205
120 136
120 137
120 145
120 152
120 154
120 172
120 173
120 174
120 176
120 191
120 205
123 198
124 159
124 177
125 203
126 148
126 151
127 169
130 131
130 180
130 181
130 182
130 184
130 185
130 186
130 188
130 189
130 197
130 200
130 202
130 204
130 208
130 209
131 180
131 181
131 182
131 184
131 185
131 186
131 188
131 189
131 197
131 200
131 202
131 204
131 208
131 209
132 206
134 135
134 149
134 161
134 187
134 196
135 149
135 161
135 187
135 196
136 137
136 145
136 152
136 154
136 172
136 173
136 174
136 176
136 191
136 205
137 145
137 152
137 154
137 172
137 173
137 174
137 176
137 191
137 205
138 139
138 193
139 193
140 141
140 192
141 192
142 160
143 171
143 190
145 152
145 154
145 172
145 173
145 174
145 176
145 191
145 205
146 167
146 168
146 199
148 151
149 161
149 187
149 196
152 154
152 172
152 173
152 174
152 176
152 191
152 205
154 172
154 173
154 174
154 176
154 191
154 205
155 156
157 158
157 178
158 178
159 177
161 187
161 196
162 207
163 165
163 183
163 210
165 183
165 210
167 168
167 199
168 199
171 190
172 173
172 174
172 176
172 191
172 205
173 174
173 176
173 191
173 205
174 176
174 191
174 205
175 194
175 211
176 191
176 205
180 181
180 182
180 184
180 185
180 186
180 188
180 189
180 197
180 200
180 202
180 204
180 208
180 209
181 182
181 184
181 185
181 186
181 188
181 189
181 197
181 200
181 202
181 204
181 208
181 209
182 184
182 185
182 186
182 188
182 189
182 197
182 200
182 202
182 204
182 208
182 209
183 210
184 185
184 186
184 188
184 189
184 197
184 200
184 202
184 204
184 208
184 209
185 186
185 188
185 189
185 197
185 200
185 202
185 204
185 208
185 209
186 188
186 189
186 197
186 200
186 202
186 204
186 208
186 209
187 196
188 189
188 197
188 200
188 202
188 204
188 208
188 209
189 197
189 200
189 202
189 204
189 208
189 209
191 205
194 211
197 200
197 202
197 204
197 208
197 209
200 202
200 204
200 208
200 209
202 204
202 208
202 209
204 208
204 209
208 209
