0 1
0 2
0 3
0 4
0 5
0 6
0 7
0 8
0 9
0 10
0 11
0 12
0 13
0 14
0 15
0 16
0 17
0 18
0 19
0 20
0 21
0 22
0 23
0 24
0 25
0 26
0 27
0 28
0 29
0 30
0 31
0 32
0 33
0 34
0 35
0 36
0 37
0 38
0 39
0 40
0 41
0 42
0 43
0 44
0 45
0 46
0 47
0 48
0 49
0 50
0 51
0 52
0 53
0 54
0 55
0 56
0 57
0 58
0 59
0 60
0 61
0 62
0 63
0 64
0 65
0 66
0 67
0 68
0 69
0 70
0 71
0 72
0 73
0 74
0 75
0 76
0 77
0 78
0 79
0 80
0 81
0 82
0 83
0 84
0 85
0 86
0 87
0 88
0 89
0 90
0 91
0 92
0 93
0 94
0 95
0 96
0 97
0 98
0 99
0 100
0 101
0 102
0 103
0 104
0 105
0 106
0 107
0 108
0 109
0 110
0 111
0 112
0 113
0 114
0 115
0 116
0 117
0 118
0 119
0 120
0 121
0 122
0 123
0 124
0 125
0 126
0 127
0 128
0 129
0 130
0 131
0 132
0 133
0 134
0 135
0 136
0 137
0 138
0 139
0 140
0 141
0 142
0 143
0 144
0 145
0 146
0 147
0 148
0 149
0 150
0 151
0 152
0 153
0 154
0 155
0 156
0 157
0 158
0 159
0 160
0 161
0 162
0 163
0 164
0 165
0 166
0 167
0 168
0 169
0 170
0 171
0 172
0 173
0 174
0 175
0 176
0 177
0 178
0 179
0 180
0 181
0 182
0 183
0 184
0 185
0 186
0 187
0 188
0 189
0 190
0 191
0 192
0 193
0 194
0 195
0 196
0 197
0 198
0 199
0 200
0 201
0 202
0 203
0 204
0 205
0 206
0 207
0 208
0 209
0 210
0 211
1 122
2 42
2 43
2 46
2 53
2 56
2 59
2 61
2 93
2 101
2 109
2 162
2 207
3 86
3 87
3 95
5 6
5 19
5 20
5 21
5 33
5 34
5 41
5 45
5 70
5 100
6 19
6 20
6 21
6 33
6 34
6 41
6 45
6 70
6 100
7 44
7 76
7 112
8 16
8 62
8 138
8 139
8 144
8 193
9 28
9 48
9 52
9 54
9 67
9 68
9 69
9 103
9 104
9 115
9 116
9 118
9 119
9 120
9 133
9 136
9 137
9 140
9 141
9 143
9 145
9 152
9 153
9 154
9 170
9 171
9 172
9 173
9 174
9 176
9 190
9 191
9 192
9 205
10 25
10 49
10 179
11 82
11 83
12 27
12 38
12 77
12 78
12 85
12 92
12 96
12 97
12 98
12 99
12 102
12 110
12 146
12 163
12 165
12 166
12 167
12 168
12 183
12 199
12 210
13 14
15 90
15 129
16 62
16 138
16 139
16 144
16 193
17 18
17 24
17 35
17 36
17 37
17 40
17 47
17 50
17 51
17 55
17 57
17 60
17 66
17 71
17 72
17 73
17 74
17 75
17 88
17 89
17 105
17 107
17 108
17 127
17 128
17 130
17 131
17 169
17 180
17 181
17 182
17 184
17 185
17 186
17 188
17 189
17 197
17 200
17 202
17 204
17 208
17 209
18 24
18 35
18 36
18 37
18 40
18 47
18 50
18 51
18 55
18 57
18 60
18 66
18 71
18 72
18 73
18 74
18 75
18 88
18 89
18 105
18 107
18 108
18 127
18 128
18 130
18 131
18 169
18 180
18 181
18 182
18 184
18 185
18 186
18 188
18 189
18 197
18 200
18 202
18 204
18 208
18 209
19 20
19 21
19 33
19 34
19 41
19 45
19 70
19 100
20 21
20 33
20 34
20 41
20 45
20 70
20 100
21 33
21 34
21 41
21 45
21 70
21 100
22 106
22 132
22 206
23 58
23 79
23 80
23 195
24 35
24 36
24 37
24 40
24 47
24 50
24 51
24 55
24 57
24 60
24 66
24 71
24 72
24 73
24 74
24 75
24 88
24 89
24 105
24 107
24 108
24 127
24 128
24 130
24 131
24 169
24 180
24 181
24 182
24 184
24 185
24 186
24 188
24 189
24 197
24 200
24 202
24 204
24 208
24 209
25 49
25 179
26 29
26 30
26 91
26 113
27 38
27 77
27 78
27 85
27 92
27 96
27 97
27 98
27 99
27 102
27 110
27 146
27 163
27 165
27 166
27 167
27 168
27 183
27 199
27 210
28 48
28 52
28 54
28 63
28 64
28 65
28 67
28 68
28 69
28 94
28 103
28 104
28 115
28 116
28 118
28 119
28 120
28 123
28 124
28 133
28 136
28 137
28 140
28 141
28 143
28 145
28 147
28 152
28 153
28 154
28 155
28 156
28 157
28 158
28 159
28 170
28 171
28 172
28 173
28 174
28 176
28 177
28 178
28 190
28 191
28 192
28 198
28 205
29 30
29 91
29 113
30 91
30 113
33 34
33 41
33 45
33 70
33 100
34 41
34 45
34 70
34 100
35 36
35 37
35 40
35 47
35 50
35 51
35 55
35 57
35 60
35 66
35 71
35 72
35 73
35 74
35 75
35 88
35 89
35 105
35 107
35 108
35 127
35 128
35 130
35 131
35 169
35 180
35 181
35 182
35 184
35 185
35 186
35 188
35 189
35 197
35 200
35 202
35 204
35 208
35 209
36 37
36 40
36 47
36 50
36 51
36 55
36 57
36 60
36 66
36 71
36 72
36 73
36 74
36 75
36 88
36 89
36 105
36 107
36 108
36 127
36 128
36 130
36 131
36 169
36 180
36 181
36 182
36 184
36 185
36 186
36 188
36 189
36 197
36 200
36 202
36 204
36 208
36 209
37 40
37 47
37 50
37 51
37 55
37 57
37 60
37 66
37 71
37 72
37 73
37 74
37 75
37 88
37 89
37 105
37 107
37 108
37 127
37 128
37 130
37 131
37 169
37 180
37 181
37 182
37 184
37 185
37 186
37 188
37 189
37 197
37 200
37 202
37 204
37 208
37 209
38 77
38 78
38 85
38 92
38 96
38 97
38 98
38 99
38 102
38 110
38 146
38 163
38 165
38 166
38 167
38 168
38 183
38 199
38 210
39 114
39 126
39 134
39 135
39 148
39 149
39 150
39 151
39 161
39 175
39 187
39 194
39 196
39 211
40 47
40 50
40 51
40 55
40 57
40 60
40 66
40 71
40 72
40 73
40 74
40 75
40 88
40 89
40 105
40 107
40 108
40 127
40 128
40 130
40 131
40 169
40 180
40 181
40 182
40 184
40 185
40 186
40 188
40 189
40 197
40 200
40 202
40 204
40 208
40 209
41 45
41 70
41 100
42 43
42 46
42 53
42 56
42 59
42 61
42 93
42 101
42 109
42 162
42 207
43 46
43 53
43 56
43 59
43 61
43 93
43 101
43 109
43 162
43 207
44 76
44 112
45 70
45 100
46 53
46 56
46 59
46 61
46 93
46 101
46 109
46 162
46 207
47 50
47 51
47 55
47 57
47 60
47 66
47 71
47 72
47 73
47 74
47 75
47 88
47 89
47 105
47 107
47 108
47 127
47 128
47 130
47 131
47 169
47 180
47 181
47 182
47 184
47 185
47 186
47 188
47 189
47 197
47 200
47 202
47 204
47 208
47 209
48 52
48 54
48 63
48 64
48 65
48 67
48 68
48 69
48 94
48 103
48 104
48 115
48 116
48 118
48 119
48 120
48 123
48 124
48 133
48 136
48 137
48 140
48 141
48 143
48 145
48 147
48 152
48 153
48 154
48 155
48 156
48 157
48 158
48 159
48 170
48 171
48 172
48 173
48 174
48 176
48 177
48 178
48 190
48 191
48 192
48 198
48 205
49 179
50 51
50 55
50 57
50 60
50 66
50 71
50 72
50 73
50 74
50 75
50 88
50 89
50 105
50 107
50 108
50 127
50 128
50 130
50 131
50 169
50 180
50 181
50 182
50 184
50 185
50 186
50 188
50 189
50 197
50 200
50 202
50 204
50 208
50 209
51 55
51 57
51 60
51 66
51 71
51 72
51 73
51 74
51 75
51 88
51 89
51 105
51 107
51 108
51 127
51 128
51 130
51 131
51 169
51 180
51 181
51 182
51 184
51 185
51 186
51 188
51 189
51 197
51 200
51 202
51 204
51 208
51 209
52 54
52 63
52 64
52 65
52 67
52 68
52 69
52 94
52 103
52 104
52 115
52 116
52 118
52 119
52 120
52 123
52 124
52 133
52 136
52 137
52 140
52 141
52 143
52 145
52 147
52 152
52 153
52 154
52 155
52 156
52 157
52 158
52 159
52 170
52 171
52 172
52 173
52 174
52 176
52 177
52 178
52 190
52 191
52 192
52 198
52 205
53 56
53 59
53 61
53 93
53 101
53 109
53 162
53 207
54 63
54 64
54 65
54 67
54 68
54 69
54 94
54 103
54 104
54 115
54 116
54 118
54 119
54 120
54 123
54 124
54 133
54 136
54 137
54 140
54 141
54 143
54 145
54 147
54 152
54 153
54 154
54 155
54 156
54 159
54 170
54 171
54 172
54 173
54 174
54 176
54 177
54 178
54 190
54 191
54 192
54 198
54 205
55 57
55 60
55 66
55 71
55 72
55 73
55 74
55 75
55 88
55 89
55 105
55 107
55 108
55 127
55 128
55 130
55 131
55 169
55 180
55 181
55 182
55 184
55 185
55 186
55 188
55 189
55 197
55 200
55 202
55 204
55 208
55 209
56 59
56 61
56 93
56 101
56 109
56 162
56 207
57 60
57 66
57 71
57 72
57 73
57 74
57 75
57 88
57 89
57 105
57 107
57 108
57 127
57 128
57 130
57 131
57 169
57 180
57 181
57 182
57 184
57 185
57 186
57 188
57 189
57 197
57 200
57 202
57 204
57 208
57 209
58 79
58 80
58 195
59 61
59 93
59 101
59 109
59 162
59 207
60 66
60 71
60 72
60 73
60 74
60 75
60 88
60 89
60 105
60 107
60 108
60 127
60 128
60 130
60 131
60 169
60 180
60 181
60 182
60 184
60 185
60 186
60 188
60 189
60 197
60 200
60 202
60 204
60 208
60 209
61 93
61 101
61 109
61 162
61 207
62 138
62 139
62 144
62 193
63 64
63 65
63 68
63 69
63 94
63 103
63 104
63 115
63 116
63 118
63 119
63 120
63 123
63 124
63 133
63 140
63 141
63 143
63 145
63 147
63 153
63 154
63 155
63 156
63 157
63 158
63 159
63 171
63 172
63 173
63 176
63 177
63 178
63 190
63 191
63 192
63 198
63 205
64 65
64 68
64 69
64 94
64 103
64 104
64 115
64 116
64 118
64 119
64 120
64 123
64 124
64 133
64 140
64 141
64 143
64 145
64 147
64 153
64 154
64 155
64 156
64 157
64 158
64 159
64 171
64 172
64 173
64 176
64 177
64 178
64 190
64 191
64 192
64 198
64 205
65 68
65 69
65 94
65 103
65 104
65 115
65 116
65 118
65 119
65 120
65 123
65 124
65 133
65 140
65 141
65 143
65 145
65 147
65 153
65 154
65 155
65 156
65 157
65 158
65 159
65 171
65 172
65 173
65 176
65 177
65 178
65 190
65 191
65 192
65 198
65 205
66 71
66 72
66 73
66 74
66 75
66 88
66 89
66 105
66 107
66 108
66 127
66 128
66 130
66 131
66 169
66 180
66 181
66 182
66 184
66 185
66 186
66 188
66 189
66 197
66 200
66 202
66 204
66 208
66 209
67 68
67 69
67 103
67 104
67 115
67 116
67 118
67 119
67 120
67 133
67 136
67 137
67 140
67 141
67 143
67 145
67 152
67 153
67 154
67 170
67 171
67 172
67 173
67 174
67 176
67 190
67 191
67 192
67 205
68 69
68 94
68 103
68 104
68 115
68 116
68 118
68 119
68 120
68 123
68 124
68 133
68 136
68 137
68 140
68 141
68 143
68 145
68 147
68 152
68 153
68 154
68 155
68 156
68 159
68 170
68 171
68 172
68 173
68 174
68 176
68 177
68 178
68 190
68 191
68 192
68 198
68 205
69 94
69 103
69 104
69 115
69 116
69 118
69 119
69 120
69 123
69 124
69 133
69 136
69 137
69 140
69 141
69 143
69 145
69 147
69 152
69 153
69 154
69 155
69 156
69 157
69 158
69 159
69 170
69 171
69 172
69 173
69 174
69 176
69 177
69 178
69 190
69 191
69 192
69 198
69 205
70 100
71 72
71 73
71 74
71 75
71 88
71 89
71 105
71 107
71 108
71 127
71 128
71 130
71 131
71 169
71 180
71 181
71 182
71 184
71 185
71 186
71 188
71 189
71 197
71 200
71 202
71 204
71 208
71 209
72 73
72 74
72 75
72 88
72 89
72 105
72 107
72 108
72 127
72 128
72 130
72 131
72 169
72 180
72 181
72 182
72 184
72 185
72 186
72 188
72 189
72 197
72 200
72 202
72 204
72 208
72 209
73 74
73 75
73 88
73 89
73 105
73 107
73 108
73 127
73 128
73 130
73 131
73 169
73 180
73 181
73 182
73 184
73 185
73 186
73 188
73 189
73 197
73 200
73 202
73 204
73 208
73 209
74 75
74 88
74 89
74 105
74 107
74 108
74 127
74 128
74 130
74 131
74 169
74 180
74 181
74 182
74 184
74 185
74 186
74 188
74 189
74 197
74 200
74 202
74 204
74 208
74 209
75 88
75 89
75 105
75 107
75 108
75 127
75 128
75 130
75 131
75 169
75 180
75 181
75 182
75 184
75 185
75 186
75 188
75 189
75 197
75 200
75 202
75 204
75 208
75 209
76 112
77 78
77 85
77 92
77 96
77 97
77 98
77 99
77 102
77 110
77 146
77 163
77 165
77 166
77 167
77 168
77 183
77 199
77 210
78 85
78 92
78 96
78 97
78 98
78 99
78 102
78 110
78 146
78 163
78 165
78 166
78 167
78 168
78 183
78 199
78 210
79 80
79 195
80 195
81 84
82 83
85 92
85 96
85 97
85 98
85 99
85 102
85 110
85 146
85 163
85 165
85 166
85 167
85 168
85 183
85 199
85 210
86 87
86 95
87 95
88 89
88 105
88 107
88 108
88 127
88 128
88 130
88 131
88 169
88 180
88 181
88 182
88 184
88 185
88 186
88 188
88 189
88 197
88 200
88 202
88 204
88 208
88 209
89 105
89 107
89 108
89 127
89 128
89 130
89 131
89 169
89 180
89 181
89 182
89 184
89 185
89 186
89 188
89 189
89 197
89 200
89 202
89 204
89 208
89 209
90 129
91 113
92 96
92 97
92 98
92 99
92 102
92 110
92 146
92 163
92 165
92 166
92 167
92 168
92 183
92 199
92 210
93 101
93 109
93 162
93 207
94 103
94 104
94 115
94 116
94 118
94 119
94 120
94 123
94 124
94 133
94 140
94 141
94 143
94 145
94 147
94 153
94 154
94 155
94 156
94 157
94 158
94 159
94 171
94 172
94 173
94 176
94 177
94 178
94 190
94 191
94 192
94 198
94 205
96 97
96 98
96 99
96 102
96 110
96 146
96 163
96 165
96 166
96 167
96 168
96 183
96 199
96 210
97 98
97 99
97 102
97 110
97 146
97 163
97 165
97 166
97 167
97 168
97 183
97 199
97 210
98 99
98 102
98 110
98 146
98 163
98 165
98 166
98 167
98 168
98 183
98 199
98 210
99 102
99 110
99 146
99 163
99 165
99 166
99 167
99 168
99 183
99 199
99 210
101 109
101 162
101 207
102 110
102 146
102 163
102 165
102 166
102 167
102 168
102 183
102 199
102 210
103 104
103 115
103 116
103 118
103 119
103 120
103 123
103 124
103 133
103 136
103 137
103 140
103 141
103 143
103 145
103 147
103 152
103 153
103 154
103 155
103 156
103 157
103 158
103 159
103 170
103 171
103 172
103 173
103 174
103 176
103 177
103 178
103 190
103 191
103 192
103 198
103 205
104 115
104 116
104 118
104 119
104 120
104 123
104 124
104 133
104 136
104 137
104 140
104 141
104 143
104 145
104 147
104 152
104 153
104 154
104 155
104 156
104 159
104 170
104 171
104 172
104 173
104 174
104 176
104 177
104 178
104 190
104 191
104 192
104 198
104 205
105 107
105 108
105 127
105 128
105 130
105 131
105 169
105 180
105 181
105 182
105 184
105 185
105 186
105 188
105 189
105 197
105 200
105 202
105 204
105 208
105 209
106 132
106 206
107 108
107 127
107 128
107 130
107 131
107 169
107 180
107 181
107 182
107 184
107 185
107 186
107 188
107 189
107 197
107 200
107 202
107 204
107 208
107 209
108 127
108 128
108 130
108 131
108 169
108 180
108 181
108 182
108 184
108 185
108 186
108 188
108 189
108 197
108 200
108 202
108 204
108 208
108 209
109 162
109 207
110 146
110 163
110 165
110 166
110 167
110 168
110 183
110 199
110 210
111 117
111 142
111 160
114 126
114 134
114 135
114 148
114 149
114 150
114 151
114 161
114 175
114 187
114 194
114 196
114 211
115 116
115 118
115 119
115 120
115 123
115 124
115 133
115 136
115 137
115 140
115 141
115 143
115 145
115 147
115 152
115 153
115 154
115 155
115 156
115 157
115 158
115 159
115 170
115 171
115 172
115 173
115 174
115 176
115 177
115 178
115 190
115 191
115 192
115 198
115 205
116 118
116 119
116 120
116 123
116 124
116 133
116 136
116 137
116 140
116 141
116 143
116 145
116 147
116 152
116 153
116 154
116 155
116 156
116 157
116 158
116 159
116 170
116 171
116 172
116 173
116 174
116 176
116 177
116 178
116 190
116 191
116 192
116 198
116 205
117 142
117 160
118 119
118 120
118 123
118 124
118 133
118 136
118 137
118 140
118 141
118 143
118 145
118 147
118 152
118 153
118 154
118 155
118 156
118 157
118 158
118 159
118 170
118 171
118 172
118 173
118 174
118 176
118 177
118 178
118 190
118 191
118 192
118 198
118 205
119 120
119 123
119 124
119 133
119 136
119 137
119 140
119 141
119 143
119 145
119 147
119 152
119 153
119 154
119 155
119 156
119 157
119 158
119 159
119 170
119 171
119 172
119 173
119 174
119 176
119 177
119 178
119 190
119 191
119 192
119 198
119 205
120 123
120 124
120 133
120 136
120 137
120 140
120 141
120 143
120 145
120 147
120 152
120 153
120 154
120 155
120 156
120 157
120 158
120 159
120 170
120 171
120 172
120 173
120 174
120 176
120 177
120 178
120 190
120 191
120 192
120 198
120 205
123 124
123 133
123 140
123 141
123 143
123 145
123 147
123 153
123 154
123 155
123 156
123 157
123 158
123 159
123 171
123 172
123 173
123 176
123 177
123 178
123 190
123 191
123 192
123 198
123 205
124 133
124 140
124 141
124 143
124 145
124 147
124 153
124 154
124 155
124 156
124 157
124 158
124 159
124 171
124 172
124 173
124 176
124 177
124 178
124 190
124 191
124 192
124 198
124 205
125 203
126 134
126 135
126 148
126 149
126 150
126 151
126 161
126 175
126 187
126 194
126 196
126 211
127 128
127 130
127 131
127 169
127 180
127 181
127 182
127 184
127 185
127 186
127 188
127 189
127 197
127 200
127 202
127 204
127 208
127 209
128 130
128 131
128 169
128 180
128 181
128 182
128 184
128 185
128 186
128 188
128 189
128 197
128 200
128 202
128 204
128 208
128 209
130 131
130 169
130 180
130 181
130 182
130 184
130 185
130 186
130 188
130 189
130 197
130 200
130 202
130 204
130 208
130 209
131 169
131 180
131 181
131 182
131 184
131 185
131 186
131 188
131 189
131 197
131 200
131 202
131 204
131 208
131 209
132 206
133 136
133 137
133 140
133 141
133 143
133 145
133 147
133 152
133 153
133 154
133 155
133 156
133 159
133 170
133 171
133 172
133 173
133 174
133 176
133 177
133 178
133 190
133 191
133 192
133 198
133 205
134 135
134 148
134 149
134 150
134 151
134 161
134 175
134 187
134 194
134 196
134 211
135 148
135 149
135 150
135 151
135 161
135 175
135 187
135 194
135 196
135 211
136 137
136 140
136 141
136 143
136 145
136 152
136 153
136 154
136 170
136 171
136 172
136 173
136 174
136 176
136 190
136 191
136 192
136 205
137 140
137 141
137 143
137 145
137 152
137 153
137 154
137 170
137 171
137 172
137 173
137 174
137 176
137 190
137 191
137 192
137 205
138 139
138 144
138 193
139 144
139 193
140 141
140 143
140 145
140 147
140 152
140 153
140 154
140 155
140 156
140 157
140 158
140 159
140 170
140 171
140 172
140 173
140 174
140 176
140 177
140 178
140 190
140 191
140 192
140 198
140 205
141 143
141 145
141 147
141 152
141 153
141 154
141 155
141 156
141 157
141 158
141 159
141 170
141 171
141 172
141 173
141 174
141 176
141 177
141 178
141 190
141 191
141 192
141 198
141 205
142 160
143 145
143 147
143 152
143 153
143 154
143 155
143 156
143 159
143 170
143 171
143 172
143 173
143 174
143 176
143 177
143 178
143 190
143 191
143 192
143 198
143 205
144 193
145 147
145 152
145 153
145 154
145 155
145 156
145 157
145 158
145 159
145 170
145 171
145 172
145 173
145 174
145 176
145 177
145 178
145 190
145 191
145 192
145 198
145 205
146 163
146 165
146 166
146 167
146 168
146 183
146 199
146 210
147 153
147 154
147 155
147 156
147 157
147 158
147 159
147 171
147 172
147 173
147 176
147 177
147 178
147 190
147 191
147 192
147 198
147 205
148 149
148 150
148 151
148 161
148 175
148 187
148 194
148 196
148 211
149 150
149 151
149 161
149 175
149 187
149 194
149 196
149 211
150 151
150 161
150 175
150 187
150 194
150 196
150 211
151 161
151 175
151 187
151 194
151 196
151 211
152 153
152 154
152 170
152 171
152 172
152 173
152 174
152 176
152 190
152 191
152 192
152 205
153 154
153 155
153 156
153 157
153 158
153 159
153 170
153 171
153 172
153 173
153 174
153 176
153 177
153 178
153 190
153 191
153 192
153 198
153 205
154 155
154 156
154 157
154 158
154 159
154 170
154 171
154 172
154 173
154 174
154 176
154 177
154 178
154 190
154 191
154 192
154 198
154 205
155 156
155 157
155 158
155 159
155 171
155 172
155 173
155 176
155 177
155 178
155 190
155 191
155 192
155 198
155 205
156 157
156 158
156 159
156 171
156 172
156 173
156 176
156 177
156 178
156 190
156 191
156 192
156 198
156 205
157 158
157 159
157 172
157 173
157 176
157 177
157 178
157 191
157 192
157 198
157 205
158 159
158 172
158 173
158 176
158 177
158 178
158 191
158 192
158 198
158 205
159 171
159 172
159 173
159 176
159 177
159 178
159 190
159 191
159 192
159 198
159 205
161 175
161 187
161 194
161 196
161 211
162 207
163 165
163 166
163 167
163 168
163 183
163 199
163 210
165 166
165 167
165 168
165 183
165 199
165 210
166 167
166 168
166 183
166 199
166 210
167 168
167 183
167 199
167 210
168 183
168 199
168 210
169 180
169 181
169 182
169 184
169 185
169 186
169 188
169 189
169 197
169 200
169 202
169 204
169 208
169 209
170 171
170 172
170 173
170 174
170 176
170 190
170 191
170 192
170 205
171 172
171 173
171 174
171 176
171 177
171 178
171 190
171 191
171 192
171 198
171 205
172 173
172 174
172 176
172 177
172 178
172 190
172 191
172 192
172 198
172 205
173 174
173 176
173 177
173 178
173 190
173 191
173 192
173 198
173 205
174 176
174 190
174 191
174 192
174 205
175 187
175 194
175 196
175 211
176 177
176 178
176 190
176 191
176 192
176 198
176 205
177 178
177 190
177 191
177 192
177 198
177 205
178 190
178 191
178 192
178 198
178 205
180 181
180 182
180 184
180 185
180 186
180 188
180 189
180 197
180 200
180 202
180 204
180 208
180 209
181 182
181 184
181 185
181 186
181 188
181 189
181 197
181 200
181 202
181 204
181 208
181 209
182 184
182 185
182 186
182 188
182 189
182 197
182 200
182 202
182 204
182 208
182 209
183 199
183 210
184 185
184 186
184 188
184 189
184 197
184 200
184 202
184 204
184 208
184 209
185 186
185 188
185 189
185 197
185 200
185 202
185 204
185 208
185 209
186 188
186 189
186 197
186 200
186 202
186 204
186 208
186 209
187 194
187 196
187 211
188 189
188 197
188 200
188 202
188 204
188 208
188 209
189 197
189 200
189 202
189 204
189 208
189 209
190 191
190 192
190 198
190 205
191 192
191 198
191 205
192 198
192 205
194 196
194 211
196 211
197 200
197 202
197 204
197 208
197 209
198 205
199 210
200 202
200 204
200 208
200 209
202 204
202 208
202 209
204 208
204 209
208 209
