0 1
0 10
1 122
2 46
2 56
3 86
3 95
4 116
4 164
5 45
5 70
6 41
6 70
7 76
7 113
8 16
8 144
9 116
9 170
10 49
10 81
11 82
12 139
12 183
13 14
14 72
15 129
15 206
17 24
17 50
18 88
19 41
20 33
21 33
21 41
22 132
22 203
23 32
23 58
23 80
24 26
24 184
25 179
26 30
27 113
27 168
28 48
28 205
29 91
30 113
30 114
30 201
31 110
34 41
34 100
35 74
36 188
37 60
37 127
38 85
39 161
39 187
40 180
42 43
42 93
43 53
44 76
44 112
46 162
47 66
47 131
49 179
49 209
50 74
50 108
50 197
50 202
50 204
51 74
51 200
52 120
52 173
53 109
54 133
55 128
57 74
57 107
58 206
59 101
59 207
60 128
60 131
61 101
62 144
62 193
63 64
63 65
63 198
64 123
65 155
67 119
67 137
68 143
68 153
69 116
69 141
71 180
71 189
72 186
72 208
73 200
74 75
74 208
75 130
77 78
78 163
79 80
79 195
81 84
82 83
83 162
85 146
86 87
87 166
88 107
89 131
89 184
90 129
90 186
91 113
92 98
92 183
93 101
94 156
94 157
96 97
97 98
98 99
99 165
100 122
102 165
102 167
102 199
103 115
104 116
104 171
105 131
105 182
106 132
106 206
109 112
110 121
110 166
110 199
111 116
111 160
114 196
114 211
115 154
116 120
116 145
116 157
116 172
117 142
117 160
118 119
118 191
119 120
124 159
125 203
126 151
127 169
133 153
134 135
135 149
136 152
136 174
137 174
138 139
138 193
140 141
140 192
143 190
146 199
147 198
148 151
148 175
149 187
150 175
151 157
154 173
155 156
157 158
158 178
159 177
161 196
162 207
163 210
165 210
167 168
171 190
172 205
175 194
175 211
176 191
177 178
181 182
185 197
186 209
188 208
189 202
